SystemName          Carbon
SystemLabel         C
WriteMDXmol            .true.
SolutionMethod     diagonal
NumberOfSpecies     1
%block ChemicalSpeciesLabel
1    6    C
%endblock ChemicalSpeciesLabel

#XC.functional GGA
#XC.authors  PBE

PAO.EnergyShift 50 meV

MeshCutoff         200.0000000     Ry
#SpinPolarized      .true.
MaxSCFIterations       200
OccupationFunction     FD
DM.MixingWeight        0.1
ElectronicTemperature  300.0 K
DM.NumberPulay         5
DM.Tolerance           0.0001   

UseSaveData         .false.
WriteDM             .true. 
#DM.UseSaveDM        .true.
#MD.UseSaveXV        .true.
MD.UseSaveCG        .false.
WriteWaveFunctions  .true.
WriteMullikenPop     0 
WriteKpoints:       .false.
SaveRho             .false.

MD.TypeOfRun         cg
MD.NumCGsteps        150
MD.MaxForceTol       0.04 eV/Ang
MD.MaxCGDispl        0.1 Bohr
MD.VariableCell     .false.

NetCharge = 0

%block kgrid_Monkhorst_Pack
1    0    0   0.0  
0    1    0   0.0  
0    0    1   0.0  
%endblock kgrid_Monkhorst_Pack

#BandLinesScale ReciprocalLatticeVectors
#%block BandLines
#1   0.0 0.0 0.0 
#101 0.0 0.0 0.5
#%endblock BandLines

#WriteDenchar   .true.
#%block WaveFuncKPoints
#  0.000  0.000  0.000 from 117 to 123
#%endblock WaveFuncKPoints

%block GeometryConstraints
    routine constr
%endblock GeometryConstraints

LatticeConstant  1.0     Ang
%block LatticeVectors
  17.00   0.00   0.00
  0.00   17.00   0.00
  0.00   0.00   17.00
%endblock LatticeVectors

NumberOfAtoms   2

AtomicCoordinatesFormat  Ang
%block AtomicCoordinatesAndAtomicSpecies
       0.38243682542751717   0.0   -0.0  1

       1.6361051388857866   0.0   -0.0  1

%endblock AtomicCoordinatesAndAtomicSpecies
